\ENCODING=ISO-8859-1
\Problem name: 

Minimize
 obj1: 14 x11 + 16 x12 + 13 x13 + 18 x14 + 8 x21 + 9 x22 + 10 x23 + 11 x24
       + 18 x31 + 16 x32 + 21 x33 + 20 x34
Subject To
 c1: x11 + x12 + x13 + x14 <= 30
 c2: x21 + x22 + x23 + x24 <= 50
 c3: x31 + x32 + x33 + x34 <= 40
 c4: x11 + x21 + x31  = 20
 c5: x12 + x22 + x32  = 28
 c6: x13 + x23 + x33  = 25
 c7: x14 + x24 + x34  = 34
End
